0000000000000000
0000000000000000
0000000000000000
0000111100000000
0010000001000000
0000000000100000
0000000000100000
0000000000100000
0000000000100000
0000000000100000
0000000000100000
0000000000100000
0000000000100000
0011111111111000
0000000000000000
0000000000000000
